(set-logic HORN)
(declare-datatypes ((List 1)) ((par (k!00)((nil) (insert (head k!00) (tail (List k!00)))))))
(declare-fun length ((List Int) Int) Bool)
(define-funs-rec ( ( length ((x!1 (List Int))) Int))
                 ( (ite (= x!1 nil) 0 (+ 1 ((_ length 0) (tail x!1))))))
(assert (forall ((dummy Int)) (=> true (length nil 0))))
(assert (forall ((n Int) (x Int) (xs (List Int)))
  (=> (length xs n) (length (insert x xs) (+ 1 n)))))
(assert (forall ((xs (List Int)) (n Int) (m Int))
  (=> (and (= ((_ length 0) xs) m)
           (= ((_ length 0) xs) n)
           (length xs m)
           (length xs n))
      (= m n))))
(check-sat)